(declare-fun i0 () Int)
(declare-fun i1 () Int)
(declare-fun i2 () Int)
(push)
(check-sat)
(check-sat)
(pop)
(check-sat)
(declare-fun v12 () Bool)
(assert (< 0 i2))
(check-sat)
(assert (= (> i2 0) v12))
(assert (or (> (- i0) 0) v12))
(check-sat)
(assert (>= i1 i2))
(assert (< (- i1 185) (* 185 (- i0))))
(check-sat)
